100
32
5
15
31
27
31
13
7
12
26
28
29
9
12
3
8
9
1
4
1
26
17
14
11
25
16
8
9
16
28
14
10
21
12
10
11
23
23
10
2
1
19
2
15
14
11
10
17
2
1
3
6
1
2
2
4
1
2
17
1
18
3
1
20
3
8
2
4
3
3
2
4
5
1
18
7
2
2
4
2
1
3
2
1
1
4
4
17
4
2
1
2
2
4
2
5
2
1
18
1
2